p cnf 324 1
324 0
w 1 0.623672
w 2 1 1
w 2 -1 0
w 3 2 0
w 3 -2 1
w 4 3 1
w 4 -3 0
w 5 4 0
w 5 -4 1
w 6 5 1
w 6 -5 0
w 7 6 1
w 7 -6 0
w 8 7 1
w 8 -7 0
w 9 8 1
w 9 -8 0
w 10 9 1
w 10 -9 0
w 11 10 0.0913453
w 11 -10 0.676967
w 12 11 1
w 12 -11 0
w 13 12 0
w 13 -12 1
w 14 13 0
w 14 -13 1
w 15 14 0
w 15 -14 1
w 16 15 0
w 16 -15 1
w 17 16 1
w 17 -16 0
w 18 17 0
w 18 -17 1
w 19 1 0
w 19 -1 1
w 20 19 2 0
w 20 19 -2 0
w 20 -19 2 1
w 20 -19 -2 0
w 21 20 3 0
w 21 20 -3 1
w 21 -20 3 0
w 21 -20 -3 1
w 22 21 4 1
w 22 21 -4 0
w 22 -21 4 1
w 22 -21 -4 0
w 23 22 5 0.1709
w 23 22 -5 0.858658
w 23 -22 5 0.525537
w 23 -22 -5 0.0200429
w 24 23 6 0
w 24 23 -6 1
w 24 -23 6 0
w 24 -23 -6 1
w 25 24 7 1
w 25 24 -7 0
w 25 -24 7 0
w 25 -24 -7 0
w 26 25 8 0
w 26 25 -8 0
w 26 -25 8 0
w 26 -25 -8 1
w 27 26 9 1
w 27 26 -9 1
w 27 -26 9 0
w 27 -26 -9 1
w 28 27 10 1
w 28 27 -10 0
w 28 -27 10 0
w 28 -27 -10 1
w 29 28 11 0
w 29 28 -11 1
w 29 -28 11 0
w 29 -28 -11 0
w 30 29 12 1
w 30 29 -12 1
w 30 -29 12 0
w 30 -29 -12 0
w 31 30 13 0.332724
w 31 30 -13 0.144933
w 31 -30 13 0.0473474
w 31 -30 -13 0.475966
w 32 31 14 1
w 32 31 -14 0
w 32 -31 14 1
w 32 -31 -14 0
w 33 32 15 0
w 33 32 -15 1
w 33 -32 15 0
w 33 -32 -15 0
w 34 33 16 0
w 34 33 -16 1
w 34 -33 16 1
w 34 -33 -16 0
w 35 34 17 0.185965
w 35 34 -17 0.978413
w 35 -34 17 0.415066
w 35 -34 -17 0.20879
w 36 35 18 0.100247
w 36 35 -18 0.959914
w 36 -35 18 0.494037
w 36 -35 -18 0.375127
w 37 19 1
w 37 -19 0
w 38 37 20 1
w 38 37 -20 0
w 38 -37 20 0
w 38 -37 -20 0
w 39 38 21 0
w 39 38 -21 1
w 39 -38 21 1
w 39 -38 -21 1
w 40 39 22 0
w 40 39 -22 0
w 40 -39 22 1
w 40 -39 -22 1
w 41 40 23 1
w 41 40 -23 0
w 41 -40 23 0
w 41 -40 -23 0
w 42 41 24 0
w 42 41 -24 1
w 42 -41 24 0
w 42 -41 -24 1
w 43 42 25 1
w 43 42 -25 1
w 43 -42 25 0
w 43 -42 -25 0
w 44 43 26 0.243722
w 44 43 -26 0.592691
w 44 -43 26 0.117673
w 44 -43 -26 0.145282
w 45 44 27 0
w 45 44 -27 0
w 45 -44 27 0
w 45 -44 -27 1
w 46 45 28 0
w 46 45 -28 1
w 46 -45 28 1
w 46 -45 -28 0
w 47 46 29 0
w 47 46 -29 1
w 47 -46 29 0
w 47 -46 -29 0
w 48 47 30 1
w 48 47 -30 0
w 48 -47 30 0
w 48 -47 -30 0
w 49 48 31 1
w 49 48 -31 0
w 49 -48 31 1
w 49 -48 -31 1
w 50 49 32 0
w 50 49 -32 0
w 50 -49 32 1
w 50 -49 -32 1
w 51 50 33 0
w 51 50 -33 1
w 51 -50 33 0
w 51 -50 -33 0
w 52 51 34 1
w 52 51 -34 0
w 52 -51 34 1
w 52 -51 -34 1
w 53 52 35 1
w 53 52 -35 0
w 53 -52 35 1
w 53 -52 -35 0
w 54 53 36 1
w 54 53 -36 0
w 54 -53 36 0
w 54 -53 -36 1
w 55 37 0
w 55 -37 1
w 56 55 38 1
w 56 55 -38 1
w 56 -55 38 0
w 56 -55 -38 1
w 57 56 39 1
w 57 56 -39 0
w 57 -56 39 0
w 57 -56 -39 1
w 58 57 40 0
w 58 57 -40 1
w 58 -57 40 1
w 58 -57 -40 1
w 59 58 41 0
w 59 58 -41 0
w 59 -58 41 0
w 59 -58 -41 1
w 60 59 42 1
w 60 59 -42 0
w 60 -59 42 1
w 60 -59 -42 0
w 61 60 43 1
w 61 60 -43 0
w 61 -60 43 0
w 61 -60 -43 1
w 62 61 44 1
w 62 61 -44 0
w 62 -61 44 0
w 62 -61 -44 0
w 63 62 45 1
w 63 62 -45 1
w 63 -62 45 0
w 63 -62 -45 1
w 64 63 46 0
w 64 63 -46 0
w 64 -63 46 1
w 64 -63 -46 1
w 65 64 47 0
w 65 64 -47 0
w 65 -64 47 0
w 65 -64 -47 1
w 66 65 48 0
w 66 65 -48 1
w 66 -65 48 1
w 66 -65 -48 0
w 67 66 49 1
w 67 66 -49 0
w 67 -66 49 0
w 67 -66 -49 0
w 68 67 50 1
w 68 67 -50 1
w 68 -67 50 0
w 68 -67 -50 1
w 69 68 51 0
w 69 68 -51 0
w 69 -68 51 1
w 69 -68 -51 1
w 70 69 52 1
w 70 69 -52 1
w 70 -69 52 0
w 70 -69 -52 0
w 71 70 53 0
w 71 70 -53 0
w 71 -70 53 1
w 71 -70 -53 1
w 72 71 54 1
w 72 71 -54 1
w 72 -71 54 1
w 72 -71 -54 0
w 73 55 0
w 73 -55 1
w 74 73 56 1
w 74 73 -56 0
w 74 -73 56 0
w 74 -73 -56 0
w 75 74 57 1
w 75 74 -57 0
w 75 -74 57 0
w 75 -74 -57 1
w 76 75 58 1
w 76 75 -58 0
w 76 -75 58 1
w 76 -75 -58 0
w 77 76 59 0
w 77 76 -59 1
w 77 -76 59 0
w 77 -76 -59 0
w 78 77 60 1
w 78 77 -60 1
w 78 -77 60 0
w 78 -77 -60 1
w 79 78 61 0
w 79 78 -61 0
w 79 -78 61 1
w 79 -78 -61 0
w 80 79 62 0
w 80 79 -62 0
w 80 -79 62 0
w 80 -79 -62 1
w 81 80 63 0
w 81 80 -63 0
w 81 -80 63 1
w 81 -80 -63 0
w 82 81 64 0
w 82 81 -64 1
w 82 -81 64 0
w 82 -81 -64 0
w 83 82 65 1
w 83 82 -65 1
w 83 -82 65 0
w 83 -82 -65 0
w 84 83 66 1
w 84 83 -66 0
w 84 -83 66 1
w 84 -83 -66 1
w 85 84 67 1
w 85 84 -67 1
w 85 -84 67 0
w 85 -84 -67 1
w 86 85 68 0
w 86 85 -68 1
w 86 -85 68 1
w 86 -85 -68 1
w 87 86 69 0.544774
w 87 86 -69 0.688311
w 87 -86 69 0.937569
w 87 -86 -69 0.0821139
w 88 87 70 0.772275
w 88 87 -70 0.636232
w 88 -87 70 0.196222
w 88 -87 -70 0.243077
w 89 88 71 0
w 89 88 -71 1
w 89 -88 71 0
w 89 -88 -71 0
w 90 89 72 1
w 90 89 -72 1
w 90 -89 72 1
w 90 -89 -72 0
w 91 73 0.908485
w 91 -73 0.73888
w 92 91 74 0
w 92 91 -74 1
w 92 -91 74 1
w 92 -91 -74 1
w 93 92 75 0.949559
w 93 92 -75 0.37102
w 93 -92 75 0.471335
w 93 -92 -75 0.63787
w 94 93 76 0
w 94 93 -76 1
w 94 -93 76 1
w 94 -93 -76 1
w 95 94 77 1
w 95 94 -77 0
w 95 -94 77 0
w 95 -94 -77 0
w 96 95 78 1
w 96 95 -78 0
w 96 -95 78 0
w 96 -95 -78 0
w 97 96 79 0
w 97 96 -79 0
w 97 -96 79 0
w 97 -96 -79 1
w 98 97 80 0.557171
w 98 97 -80 0.320423
w 98 -97 80 0.906071
w 98 -97 -80 0.50673
w 99 98 81 0
w 99 98 -81 1
w 99 -98 81 0
w 99 -98 -81 0
w 100 99 82 1
w 100 99 -82 1
w 100 -99 82 0
w 100 -99 -82 0
w 101 100 83 1
w 101 100 -83 0
w 101 -100 83 0
w 101 -100 -83 0
w 102 101 84 0
w 102 101 -84 0
w 102 -101 84 0
w 102 -101 -84 1
w 103 102 85 0
w 103 102 -85 1
w 103 -102 85 0
w 103 -102 -85 1
w 104 103 86 0
w 104 103 -86 1
w 104 -103 86 1
w 104 -103 -86 1
w 105 104 87 1
w 105 104 -87 0
w 105 -104 87 1
w 105 -104 -87 1
w 106 105 88 1
w 106 105 -88 1
w 106 -105 88 0
w 106 -105 -88 1
w 107 106 89 0
w 107 106 -89 0
w 107 -106 89 1
w 107 -106 -89 0
w 108 107 90 1
w 108 107 -90 0
w 108 -107 90 1
w 108 -107 -90 0
w 109 91 1
w 109 -91 0
w 110 109 92 1
w 110 109 -92 1
w 110 -109 92 0
w 110 -109 -92 1
w 111 110 93 0
w 111 110 -93 1
w 111 -110 93 1
w 111 -110 -93 0
w 112 111 94 1
w 112 111 -94 0
w 112 -111 94 1
w 112 -111 -94 0
w 113 112 95 1
w 113 112 -95 0
w 113 -112 95 0
w 113 -112 -95 1
w 114 113 96 1
w 114 113 -96 1
w 114 -113 96 1
w 114 -113 -96 0
w 115 114 97 0
w 115 114 -97 1
w 115 -114 97 0
w 115 -114 -97 0
w 116 115 98 0.04757
w 116 115 -98 0.824545
w 116 -115 98 0.458278
w 116 -115 -98 0.426279
w 117 116 99 1
w 117 116 -99 0
w 117 -116 99 1
w 117 -116 -99 1
w 118 117 100 0
w 118 117 -100 0
w 118 -117 100 1
w 118 -117 -100 0
w 119 118 101 1
w 119 118 -101 1
w 119 -118 101 0
w 119 -118 -101 0
w 120 119 102 1
w 120 119 -102 1
w 120 -119 102 0
w 120 -119 -102 0
w 121 120 103 0
w 121 120 -103 0
w 121 -120 103 0
w 121 -120 -103 1
w 122 121 104 1
w 122 121 -104 1
w 122 -121 104 0
w 122 -121 -104 0
w 123 122 105 0.884211
w 123 122 -105 0.579368
w 123 -122 105 0.564254
w 123 -122 -105 0.74277
w 124 123 106 1
w 124 123 -106 0
w 124 -123 106 0
w 124 -123 -106 1
w 125 124 107 1
w 125 124 -107 0
w 125 -124 107 0
w 125 -124 -107 1
w 126 125 108 0
w 126 125 -108 1
w 126 -125 108 0
w 126 -125 -108 0
w 127 109 0
w 127 -109 1
w 128 127 110 0.961109
w 128 127 -110 0.670561
w 128 -127 110 0.0500316
w 128 -127 -110 0.485754
w 129 128 111 0.568631
w 129 128 -111 0.436679
w 129 -128 111 0.87359
w 129 -128 -111 0.452841
w 130 129 112 1
w 130 129 -112 0
w 130 -129 112 1
w 130 -129 -112 0
w 131 130 113 0
w 131 130 -113 0
w 131 -130 113 0
w 131 -130 -113 1
w 132 131 114 0
w 132 131 -114 1
w 132 -131 114 1
w 132 -131 -114 0
w 133 132 115 1
w 133 132 -115 0
w 133 -132 115 0
w 133 -132 -115 1
w 134 133 116 0
w 134 133 -116 1
w 134 -133 116 1
w 134 -133 -116 1
w 135 134 117 1
w 135 134 -117 0
w 135 -134 117 1
w 135 -134 -117 0
w 136 135 118 0
w 136 135 -118 1
w 136 -135 118 0
w 136 -135 -118 1
w 137 136 119 0.824251
w 137 136 -119 0.014242
w 137 -136 119 0.894577
w 137 -136 -119 0.213126
w 138 137 120 0
w 138 137 -120 1
w 138 -137 120 0
w 138 -137 -120 1
w 139 138 121 1
w 139 138 -121 0
w 139 -138 121 1
w 139 -138 -121 0
w 140 139 122 1
w 140 139 -122 0
w 140 -139 122 0
w 140 -139 -122 0
w 141 140 123 0
w 141 140 -123 1
w 141 -140 123 1
w 141 -140 -123 1
w 142 141 124 1
w 142 141 -124 1
w 142 -141 124 1
w 142 -141 -124 0
w 143 142 125 1
w 143 142 -125 0
w 143 -142 125 1
w 143 -142 -125 0
w 144 143 126 1
w 144 143 -126 0
w 144 -143 126 1
w 144 -143 -126 1
w 145 127 1
w 145 -127 0
w 146 145 128 0.195934
w 146 145 -128 0.9211
w 146 -145 128 0.50113
w 146 -145 -128 0.402779
w 147 146 129 1
w 147 146 -129 1
w 147 -146 129 0
w 147 -146 -129 0
w 148 147 130 1
w 148 147 -130 1
w 148 -147 130 0
w 148 -147 -130 0
w 149 148 131 1
w 149 148 -131 1
w 149 -148 131 0
w 149 -148 -131 0
w 150 149 132 0
w 150 149 -132 1
w 150 -149 132 1
w 150 -149 -132 0
w 151 150 133 1
w 151 150 -133 1
w 151 -150 133 1
w 151 -150 -133 0
w 152 151 134 1
w 152 151 -134 1
w 152 -151 134 1
w 152 -151 -134 0
w 153 152 135 0
w 153 152 -135 1
w 153 -152 135 1
w 153 -152 -135 0
w 154 153 136 1
w 154 153 -136 0
w 154 -153 136 1
w 154 -153 -136 1
w 155 154 137 0
w 155 154 -137 1
w 155 -154 137 0
w 155 -154 -137 0
w 156 155 138 0
w 156 155 -138 1
w 156 -155 138 0
w 156 -155 -138 0
w 157 156 139 1
w 157 156 -139 0
w 157 -156 139 1
w 157 -156 -139 0
w 158 157 140 0
w 158 157 -140 1
w 158 -157 140 0
w 158 -157 -140 0
w 159 158 141 0
w 159 158 -141 0
w 159 -158 141 0
w 159 -158 -141 1
w 160 159 142 0
w 160 159 -142 0
w 160 -159 142 0
w 160 -159 -142 1
w 161 160 143 0.746797
w 161 160 -143 0.235511
w 161 -160 143 0.704129
w 161 -160 -143 0.28915
w 162 161 144 0
w 162 161 -144 1
w 162 -161 144 0
w 162 -161 -144 1
w 163 145 0
w 163 -145 1
w 164 163 146 1
w 164 163 -146 1
w 164 -163 146 0
w 164 -163 -146 0
w 165 164 147 0
w 165 164 -147 0
w 165 -164 147 0
w 165 -164 -147 1
w 166 165 148 0
w 166 165 -148 0
w 166 -165 148 1
w 166 -165 -148 0
w 167 166 149 0
w 167 166 -149 0
w 167 -166 149 1
w 167 -166 -149 0
w 168 167 150 1
w 168 167 -150 1
w 168 -167 150 1
w 168 -167 -150 0
w 169 168 151 0
w 169 168 -151 0
w 169 -168 151 1
w 169 -168 -151 0
w 170 169 152 1
w 170 169 -152 0
w 170 -169 152 1
w 170 -169 -152 1
w 171 170 153 1
w 171 170 -153 0
w 171 -170 153 1
w 171 -170 -153 0
w 172 171 154 1
w 172 171 -154 1
w 172 -171 154 0
w 172 -171 -154 1
w 173 172 155 1
w 173 172 -155 0
w 173 -172 155 1
w 173 -172 -155 0
w 174 173 156 0
w 174 173 -156 1
w 174 -173 156 0
w 174 -173 -156 0
w 175 174 157 0
w 175 174 -157 1
w 175 -174 157 0
w 175 -174 -157 0
w 176 175 158 0
w 176 175 -158 1
w 176 -175 158 1
w 176 -175 -158 1
w 177 176 159 1
w 177 176 -159 1
w 177 -176 159 0
w 177 -176 -159 1
w 178 177 160 0
w 178 177 -160 0
w 178 -177 160 1
w 178 -177 -160 1
w 179 178 161 0
w 179 178 -161 1
w 179 -178 161 1
w 179 -178 -161 0
w 180 179 162 0
w 180 179 -162 0
w 180 -179 162 1
w 180 -179 -162 0
w 181 163 0
w 181 -163 1
w 182 181 164 0
w 182 181 -164 1
w 182 -181 164 0
w 182 -181 -164 1
w 183 182 165 1
w 183 182 -165 0
w 183 -182 165 1
w 183 -182 -165 1
w 184 183 166 0
w 184 183 -166 0
w 184 -183 166 1
w 184 -183 -166 1
w 185 184 167 1
w 185 184 -167 0
w 185 -184 167 1
w 185 -184 -167 0
w 186 185 168 0.854072
w 186 185 -168 0.37536
w 186 -185 168 0.211472
w 186 -185 -168 0.19714
w 187 186 169 0
w 187 186 -169 1
w 187 -186 169 0
w 187 -186 -169 0
w 188 187 170 0
w 188 187 -170 0
w 188 -187 170 1
w 188 -187 -170 0
w 189 188 171 1
w 189 188 -171 1
w 189 -188 171 0
w 189 -188 -171 0
w 190 189 172 0
w 190 189 -172 1
w 190 -189 172 1
w 190 -189 -172 1
w 191 190 173 1
w 191 190 -173 0
w 191 -190 173 0
w 191 -190 -173 0
w 192 191 174 1
w 192 191 -174 0
w 192 -191 174 1
w 192 -191 -174 1
w 193 192 175 0
w 193 192 -175 0
w 193 -192 175 1
w 193 -192 -175 0
w 194 193 176 1
w 194 193 -176 1
w 194 -193 176 0
w 194 -193 -176 1
w 195 194 177 1
w 195 194 -177 1
w 195 -194 177 0
w 195 -194 -177 1
w 196 195 178 1
w 196 195 -178 0
w 196 -195 178 0
w 196 -195 -178 0
w 197 196 179 0
w 197 196 -179 0
w 197 -196 179 0
w 197 -196 -179 1
w 198 197 180 1
w 198 197 -180 1
w 198 -197 180 0
w 198 -197 -180 0
w 199 181 1
w 199 -181 0
w 200 199 182 1
w 200 199 -182 1
w 200 -199 182 1
w 200 -199 -182 0
w 201 200 183 1
w 201 200 -183 1
w 201 -200 183 0
w 201 -200 -183 0
w 202 201 184 1
w 202 201 -184 0
w 202 -201 184 0
w 202 -201 -184 1
w 203 202 185 1
w 203 202 -185 1
w 203 -202 185 0
w 203 -202 -185 1
w 204 203 186 0
w 204 203 -186 1
w 204 -203 186 1
w 204 -203 -186 1
w 205 204 187 1
w 205 204 -187 1
w 205 -204 187 1
w 205 -204 -187 0
w 206 205 188 1
w 206 205 -188 0
w 206 -205 188 1
w 206 -205 -188 1
w 207 206 189 1
w 207 206 -189 0
w 207 -206 189 0
w 207 -206 -189 0
w 208 207 190 0
w 208 207 -190 0
w 208 -207 190 1
w 208 -207 -190 1
w 209 208 191 0
w 209 208 -191 0
w 209 -208 191 1
w 209 -208 -191 0
w 210 209 192 1
w 210 209 -192 0
w 210 -209 192 1
w 210 -209 -192 0
w 211 210 193 0
w 211 210 -193 0
w 211 -210 193 0
w 211 -210 -193 1
w 212 211 194 0.560384
w 212 211 -194 0.874321
w 212 -211 194 0.256046
w 212 -211 -194 0.820975
w 213 212 195 0
w 213 212 -195 1
w 213 -212 195 0
w 213 -212 -195 0
w 214 213 196 1
w 214 213 -196 1
w 214 -213 196 0
w 214 -213 -196 0
w 215 214 197 1
w 215 214 -197 1
w 215 -214 197 1
w 215 -214 -197 0
w 216 215 198 0.434928
w 216 215 -198 0.443379
w 216 -215 198 0.726861
w 216 -215 -198 0.757645
w 217 199 0
w 217 -199 1
w 218 217 200 0
w 218 217 -200 0
w 218 -217 200 1
w 218 -217 -200 0
w 219 218 201 0
w 219 218 -201 1
w 219 -218 201 1
w 219 -218 -201 0
w 220 219 202 1
w 220 219 -202 0
w 220 -219 202 0
w 220 -219 -202 0
w 221 220 203 1
w 221 220 -203 0
w 221 -220 203 0
w 221 -220 -203 1
w 222 221 204 1
w 222 221 -204 0
w 222 -221 204 0
w 222 -221 -204 0
w 223 222 205 0
w 223 222 -205 0
w 223 -222 205 1
w 223 -222 -205 0
w 224 223 206 0
w 224 223 -206 0
w 224 -223 206 0
w 224 -223 -206 1
w 225 224 207 1
w 225 224 -207 1
w 225 -224 207 1
w 225 -224 -207 0
w 226 225 208 0
w 226 225 -208 1
w 226 -225 208 1
w 226 -225 -208 1
w 227 226 209 0
w 227 226 -209 0
w 227 -226 209 1
w 227 -226 -209 1
w 228 227 210 0
w 228 227 -210 0
w 228 -227 210 1
w 228 -227 -210 0
w 229 228 211 1
w 229 228 -211 0
w 229 -228 211 1
w 229 -228 -211 1
w 230 229 212 1
w 230 229 -212 1
w 230 -229 212 0
w 230 -229 -212 0
w 231 230 213 1
w 231 230 -213 0
w 231 -230 213 0
w 231 -230 -213 0
w 232 231 214 1
w 232 231 -214 1
w 232 -231 214 1
w 232 -231 -214 0
w 233 232 215 0
w 233 232 -215 0
w 233 -232 215 0
w 233 -232 -215 1
w 234 233 216 0
w 234 233 -216 1
w 234 -233 216 0
w 234 -233 -216 1
w 235 217 0.720771
w 235 -217 0.812106
w 236 235 218 0.816099
w 236 235 -218 0.885671
w 236 -235 218 0.19358
w 236 -235 -218 0.275861
w 237 236 219 1
w 237 236 -219 0
w 237 -236 219 1
w 237 -236 -219 0
w 238 237 220 0
w 238 237 -220 0
w 238 -237 220 1
w 238 -237 -220 1
w 239 238 221 0
w 239 238 -221 0
w 239 -238 221 1
w 239 -238 -221 0
w 240 239 222 1
w 240 239 -222 1
w 240 -239 222 0
w 240 -239 -222 0
w 241 240 223 0
w 241 240 -223 1
w 241 -240 223 0
w 241 -240 -223 0
w 242 241 224 0
w 242 241 -224 0
w 242 -241 224 1
w 242 -241 -224 0
w 243 242 225 0
w 243 242 -225 1
w 243 -242 225 0
w 243 -242 -225 1
w 244 243 226 0
w 244 243 -226 1
w 244 -243 226 0
w 244 -243 -226 1
w 245 244 227 0.144702
w 245 244 -227 0.97274
w 245 -244 227 0.880706
w 245 -244 -227 0.920661
w 246 245 228 1
w 246 245 -228 1
w 246 -245 228 0
w 246 -245 -228 0
w 247 246 229 0.543938
w 247 246 -229 0.538987
w 247 -246 229 0.124313
w 247 -246 -229 0.972669
w 248 247 230 1
w 248 247 -230 0
w 248 -247 230 1
w 248 -247 -230 0
w 249 248 231 1
w 249 248 -231 0
w 249 -248 231 0
w 249 -248 -231 1
w 250 249 232 0
w 250 249 -232 1
w 250 -249 232 1
w 250 -249 -232 1
w 251 250 233 0
w 251 250 -233 1
w 251 -250 233 0
w 251 -250 -233 1
w 252 251 234 1
w 252 251 -234 1
w 252 -251 234 1
w 252 -251 -234 0
w 253 235 1
w 253 -235 0
w 254 253 236 1
w 254 253 -236 0
w 254 -253 236 0
w 254 -253 -236 0
w 255 254 237 1
w 255 254 -237 1
w 255 -254 237 1
w 255 -254 -237 0
w 256 255 238 0
w 256 255 -238 1
w 256 -255 238 1
w 256 -255 -238 0
w 257 256 239 1
w 257 256 -239 1
w 257 -256 239 0
w 257 -256 -239 1
w 258 257 240 1
w 258 257 -240 1
w 258 -257 240 0
w 258 -257 -240 0
w 259 258 241 1
w 259 258 -241 1
w 259 -258 241 1
w 259 -258 -241 0
w 260 259 242 0
w 260 259 -242 1
w 260 -259 242 0
w 260 -259 -242 0
w 261 260 243 1
w 261 260 -243 1
w 261 -260 243 1
w 261 -260 -243 0
w 262 261 244 0
w 262 261 -244 0
w 262 -261 244 0
w 262 -261 -244 1
w 263 262 245 1
w 263 262 -245 0
w 263 -262 245 1
w 263 -262 -245 0
w 264 263 246 0
w 264 263 -246 1
w 264 -263 246 0
w 264 -263 -246 0
w 265 264 247 1
w 265 264 -247 1
w 265 -264 247 0
w 265 -264 -247 1
w 266 265 248 0.591543
w 266 265 -248 0.104124
w 266 -265 248 0.736662
w 266 -265 -248 0.140789
w 267 266 249 1
w 267 266 -249 1
w 267 -266 249 0
w 267 -266 -249 1
w 268 267 250 0
w 268 267 -250 0
w 268 -267 250 1
w 268 -267 -250 0
w 269 268 251 1
w 269 268 -251 1
w 269 -268 251 1
w 269 -268 -251 0
w 270 269 252 0.295762
w 270 269 -252 0.307726
w 270 -269 252 0.394733
w 270 -269 -252 0.687856
w 271 253 1
w 271 -253 0
w 272 271 254 1
w 272 271 -254 1
w 272 -271 254 0
w 272 -271 -254 1
w 273 272 255 1
w 273 272 -255 1
w 273 -272 255 0
w 273 -272 -255 0
w 274 273 256 1
w 274 273 -256 0
w 274 -273 256 1
w 274 -273 -256 1
w 275 274 257 1
w 275 274 -257 0
w 275 -274 257 1
w 275 -274 -257 0
w 276 275 258 0
w 276 275 -258 1
w 276 -275 258 0
w 276 -275 -258 0
w 277 276 259 0
w 277 276 -259 0
w 277 -276 259 1
w 277 -276 -259 1
w 278 277 260 1
w 278 277 -260 0
w 278 -277 260 0
w 278 -277 -260 0
w 279 278 261 1
w 279 278 -261 0
w 279 -278 261 1
w 279 -278 -261 1
w 280 279 262 1
w 280 279 -262 0
w 280 -279 262 1
w 280 -279 -262 0
w 281 280 263 0
w 281 280 -263 1
w 281 -280 263 0
w 281 -280 -263 0
w 282 281 264 0
w 282 281 -264 0
w 282 -281 264 0
w 282 -281 -264 1
w 283 282 265 0
w 283 282 -265 1
w 283 -282 265 1
w 283 -282 -265 1
w 284 283 266 0
w 284 283 -266 1
w 284 -283 266 0
w 284 -283 -266 0
w 285 284 267 0
w 285 284 -267 1
w 285 -284 267 1
w 285 -284 -267 1
w 286 285 268 1
w 286 285 -268 1
w 286 -285 268 0
w 286 -285 -268 1
w 287 286 269 0
w 287 286 -269 1
w 287 -286 269 0
w 287 -286 -269 1
w 288 287 270 1
w 288 287 -270 1
w 288 -287 270 1
w 288 -287 -270 0
w 289 271 1
w 289 -271 0
w 290 289 272 0
w 290 289 -272 0
w 290 -289 272 1
w 290 -289 -272 0
w 291 290 273 0
w 291 290 -273 0
w 291 -290 273 1
w 291 -290 -273 1
w 292 291 274 0
w 292 291 -274 1
w 292 -291 274 1
w 292 -291 -274 1
w 293 292 275 0
w 293 292 -275 0
w 293 -292 275 0
w 293 -292 -275 1
w 294 293 276 1
w 294 293 -276 0
w 294 -293 276 0
w 294 -293 -276 0
w 295 294 277 0
w 295 294 -277 1
w 295 -294 277 1
w 295 -294 -277 1
w 296 295 278 1
w 296 295 -278 0
w 296 -295 278 1
w 296 -295 -278 1
w 297 296 279 1
w 297 296 -279 0
w 297 -296 279 0
w 297 -296 -279 0
w 298 297 280 1
w 298 297 -280 1
w 298 -297 280 1
w 298 -297 -280 0
w 299 298 281 0
w 299 298 -281 1
w 299 -298 281 0
w 299 -298 -281 1
w 300 299 282 1
w 300 299 -282 0
w 300 -299 282 1
w 300 -299 -282 0
w 301 300 283 1
w 301 300 -283 1
w 301 -300 283 1
w 301 -300 -283 0
w 302 301 284 0
w 302 301 -284 1
w 302 -301 284 0
w 302 -301 -284 1
w 303 302 285 1
w 303 302 -285 0
w 303 -302 285 1
w 303 -302 -285 0
w 304 303 286 1
w 304 303 -286 1
w 304 -303 286 1
w 304 -303 -286 0
w 305 304 287 1
w 305 304 -287 0
w 305 -304 287 0
w 305 -304 -287 0
w 306 305 288 0.155171
w 306 305 -288 0.265688
w 306 -305 288 0.945716
w 306 -305 -288 0.314234
w 307 289 0
w 307 -289 1
w 308 307 290 1
w 308 307 -290 1
w 308 -307 290 0
w 308 -307 -290 0
w 309 308 291 0
w 309 308 -291 0
w 309 -308 291 0
w 309 -308 -291 1
w 310 309 292 0
w 310 309 -292 1
w 310 -309 292 0
w 310 -309 -292 0
w 311 310 293 1
w 311 310 -293 1
w 311 -310 293 0
w 311 -310 -293 0
w 312 311 294 1
w 312 311 -294 0
w 312 -311 294 0
w 312 -311 -294 1
w 313 312 295 0
w 313 312 -295 0
w 313 -312 295 1
w 313 -312 -295 0
w 314 313 296 0
w 314 313 -296 1
w 314 -313 296 1
w 314 -313 -296 1
w 315 314 297 1
w 315 314 -297 1
w 315 -314 297 0
w 315 -314 -297 0
w 316 315 298 0
w 316 315 -298 0
w 316 -315 298 1
w 316 -315 -298 0
w 317 316 299 0.32047
w 317 316 -299 0.3638
w 317 -316 299 0.635614
w 317 -316 -299 0.502734
w 318 317 300 1
w 318 317 -300 0
w 318 -317 300 0
w 318 -317 -300 1
w 319 318 301 0
w 319 318 -301 1
w 319 -318 301 1
w 319 -318 -301 1
w 320 319 302 0
w 320 319 -302 1
w 320 -319 302 0
w 320 -319 -302 0
w 321 320 303 1
w 321 320 -303 0
w 321 -320 303 0
w 321 -320 -303 0
w 322 321 304 0
w 322 321 -304 0
w 322 -321 304 1
w 322 -321 -304 0
w 323 322 305 0
w 323 322 -305 1
w 323 -322 305 1
w 323 -322 -305 1
w 324 323 306 0
w 324 323 -306 1
w 324 -323 306 0
w 324 -323 -306 1